n = 10;

m = 16;

7	61	33	2	2	8	61	57	34	3 
4	21	8	51	61	43	5	42	41	66 
27	36	4	34	50	12	68	49	41	71 
2	22	32	29	61	47	58	59	25	29
38	72	49	59	13	10	60	29	51	79
51	66	17	25	68	50	4	39	25	21 
33	2	25	1	2	39	31	71	53	61 
76	68	64	35	22	27	31	12	63	30
2	77	5	34	29	66	7	40	27	9 
45	5	50	16	7	29	28	69	37	53 
10	72	23	4	3	57	53	25	45	71 
51	37	57	45	40	41	27	38	45	48
77	1	25	23	14	54	57	77	30	20 
43	77	28	28	41	70	41	37	5	35 
5	69	3	50	53	33	78	25	57	80 
38	72	49	59	13	10	60	29	51	79
